c generated by sgen
p cnf 101 212
-2 -3 -4 0
-1 -3 -4 0
-1 -2 -4 0
-1 -2 -3 0
-6 -7 -8 0
-5 -7 -8 0
-5 -6 -8 0
-5 -6 -7 0
-10 -11 -12 0
-9 -11 -12 0
-9 -10 -12 0
-9 -10 -11 0
-14 -15 -16 0
-13 -15 -16 0
-13 -14 -16 0
-13 -14 -15 0
-18 -19 -20 0
-17 -19 -20 0
-17 -18 -20 0
-17 -18 -19 0
-22 -23 -24 0
-21 -23 -24 0
-21 -22 -24 0
-21 -22 -23 0
-26 -27 -28 0
-25 -27 -28 0
-25 -26 -28 0
-25 -26 -27 0
-30 -31 -32 0
-29 -31 -32 0
-29 -30 -32 0
-29 -30 -31 0
-34 -35 -36 0
-33 -35 -36 0
-33 -34 -36 0
-33 -34 -35 0
-38 -39 -40 0
-37 -39 -40 0
-37 -38 -40 0
-37 -38 -39 0
-42 -43 -44 0
-41 -43 -44 0
-41 -42 -44 0
-41 -42 -43 0
-46 -47 -48 0
-45 -47 -48 0
-45 -46 -48 0
-45 -46 -47 0
-50 -51 -52 0
-49 -51 -52 0
-49 -50 -52 0
-49 -50 -51 0
-54 -55 -56 0
-53 -55 -56 0
-53 -54 -56 0
-53 -54 -55 0
-58 -59 -60 0
-57 -59 -60 0
-57 -58 -60 0
-57 -58 -59 0
-62 -63 -64 0
-61 -63 -64 0
-61 -62 -64 0
-61 -62 -63 0
-66 -67 -68 0
-65 -67 -68 0
-65 -66 -68 0
-65 -66 -67 0
-70 -71 -72 0
-69 -71 -72 0
-69 -70 -72 0
-69 -70 -71 0
-74 -75 -76 0
-73 -75 -76 0
-73 -74 -76 0
-73 -74 -75 0
-78 -79 -80 0
-77 -79 -80 0
-77 -78 -80 0
-77 -78 -79 0
-82 -83 -84 0
-81 -83 -84 0
-81 -82 -84 0
-81 -82 -83 0
-86 -87 -88 0
-85 -87 -88 0
-85 -86 -88 0
-85 -86 -87 0
-90 -91 -92 0
-89 -91 -92 0
-89 -90 -92 0
-89 -90 -91 0
-94 -95 -96 0
-93 -95 -96 0
-93 -94 -96 0
-93 -94 -95 0
-97 -98 -99 0
-97 -98 -100 0
-97 -98 -101 0
-97 -99 -100 0
-97 -99 -101 0
-97 -100 -101 0
-98 -99 -100 0
-98 -99 -101 0
-98 -100 -101 0
-99 -100 -101 0
7 52 65 0
35 52 65 0
35 7 65 0
35 7 52 0
8 45 38 0
82 45 38 0
82 8 38 0
82 8 45 0
94 27 55 0
74 27 55 0
74 94 55 0
74 94 27 0
98 33 83 0
79 33 83 0
79 98 83 0
79 98 33 0
80 16 43 0
91 16 43 0
91 80 43 0
91 80 16 0
17 76 32 0
66 76 32 0
66 17 32 0
66 17 76 0
44 3 84 0
88 3 84 0
88 44 84 0
88 44 3 0
40 101 50 0
75 101 50 0
75 40 50 0
75 40 101 0
36 42 29 0
48 42 29 0
48 36 29 0
48 36 42 0
28 97 41 0
61 97 41 0
61 28 41 0
61 28 97 0
67 64 59 0
13 64 59 0
13 67 59 0
13 67 64 0
51 93 24 0
81 93 24 0
81 51 24 0
81 51 93 0
18 49 26 0
90 49 26 0
90 18 26 0
90 18 49 0
22 54 63 0
46 54 63 0
46 22 63 0
46 22 54 0
70 77 37 0
62 77 37 0
62 70 37 0
62 70 77 0
30 5 92 0
1 5 92 0
1 30 92 0
1 30 5 0
68 89 11 0
99 89 11 0
99 68 11 0
99 68 89 0
6 10 96 0
19 10 96 0
19 6 96 0
19 6 10 0
71 20 15 0
53 20 15 0
53 71 15 0
53 71 20 0
86 56 39 0
34 56 39 0
34 86 39 0
34 86 56 0
9 25 23 0
14 25 23 0
14 9 23 0
14 9 25 0
78 73 58 0
2 73 58 0
2 78 58 0
2 78 73 0
100 21 60 0
85 21 60 0
85 100 60 0
85 100 21 0
95 57 72 0
31 57 72 0
31 95 72 0
31 95 57 0
12 4 69 0
12 4 47 0
12 4 87 0
12 69 47 0
12 69 87 0
12 47 87 0
4 69 47 0
4 69 87 0
4 47 87 0
69 47 87 0
